Route #1: 17 40 9 39 12
Route #2: 26 7 53 35 8 46 34
Route #3: 52 27 45 29 5 47 48
Route #4: 36 60 20 37 15 57 13 54 19
Route #5: 14 59 11 38
Route #6: 58 10 31 25 55 18 50
Route #7: 4 30 2 28 62
Route #8: 6 33 1 63 16 51
Route #9: 21 61 22 64 42 41 43
Route #10: 23 56 49 24 3 44 32
Cost 838